set VV := 0 1 2 3 4 5 6 7 8 9 10 11 12 13 14 15 16 17 18 19 20 21 22 23 24 25 26 27 28 29 30 31 32 33 34 35 36 37 ;
set VS := 0 1 2 3 4 5 6 7 8 9 10 11 12 13 14 15 16 17 18 19 20 21 22 23 24 25 26 27 28 29 30 31 32 33 34 35 36 37 38 39 40 41 42 43 44 45 46 47 48 49 50 51 52 53 54 55 56 57 58 59 60 61 62 63 64 65 66 67 68 69 70 71 72 73 74 75 76 77 78 79 80 ;
param cv := 
0 13
1 19
2 11
3 15
4 25
5 15
6 15
7 22
8 10
9 23
10 18
11 20
12 12
13 13
14 23
15 19
16 10
17 22
18 12
19 13
20 13
21 15
22 11
23 15
24 13
25 23
26 23
27 18
28 14
29 22
30 15
31 22
32 23
33 24
34 16
35 14
36 15
37 23
;
param cs := 
0 30
1 37
2 33
3 26
4 35
5 26
6 30
7 21
8 30
9 32
10 21
11 40
12 26
13 34
14 30
15 24
16 30
17 20
18 34
19 26
20 22
21 39
22 27
23 20
24 38
25 29
26 22
27 31
28 28
29 23
30 38
31 36
32 29
33 35
34 20
35 20
36 35
37 22
38 20
39 29
40 29
41 23
42 32
43 34
44 23
45 26
46 32
47 32
48 27
49 20
50 29
51 29
52 29
53 31
54 20
55 37
56 33
57 37
58 27
59 24
60 32
61 33
62 25
63 36
64 32
65 25
66 32
67 27
68 33
69 22
70 24
71 34
72 26
73 28
74 27
75 34
76 28
77 38
78 22
79 33
80 33
;
param bv:	 0 1 2 3 4 5 6 7 8 9 10 11 12 13 14 15 16 17 18 19 20 21 22 23 24 25 26 27 28 29 30 31 32 33 34 35 36 37 := 
		0 0 22 0 0 0 0 0 0 0 19 0 0 0 0 0 0 0 0 0 0 0 0 0 0 0 0 0 0 0 0 0 0 0 0 0 0 0 0 
		1 0 0 0 13 0 0 0 0 0 0 0 22 0 0 0 0 0 20 0 0 0 0 16 0 0 23 0 0 0 0 0 0 0 0 0 0 0 0 
		2 0 0 0 0 0 25 0 0 0 0 0 0 0 0 0 0 0 0 0 0 0 0 0 0 0 0 0 0 0 0 0 24 0 0 0 0 0 0 
		3 0 0 0 0 0 0 15 19 0 14 0 0 0 0 0 0 0 0 0 0 0 0 0 0 0 0 0 0 0 0 25 0 0 0 0 0 0 11 
		4 0 0 0 0 0 0 0 23 0 0 0 0 0 0 0 19 0 0 0 0 0 0 0 0 16 0 0 0 0 0 0 0 0 0 0 0 0 0 
		5 0 0 0 0 0 0 0 22 0 0 0 0 0 0 0 0 0 0 0 0 0 0 0 0 0 0 0 0 0 0 0 0 0 0 0 0 0 0 
		6 0 0 0 0 0 0 0 0 0 0 0 0 0 0 0 0 0 23 0 0 0 17 0 0 0 0 25 10 0 0 17 0 0 0 0 0 0 0 
		7 0 0 0 0 0 0 0 0 0 0 0 0 0 0 15 21 0 0 18 0 0 0 0 0 0 0 0 0 0 0 0 0 0 0 25 0 0 0 
		8 0 0 0 0 0 0 0 0 0 0 11 0 0 22 0 0 0 0 23 0 0 0 0 0 0 0 0 0 0 0 0 17 0 0 0 0 0 0 
		9 0 0 0 0 0 0 0 0 0 0 0 0 0 0 0 0 0 0 0 14 0 0 0 0 0 13 0 0 0 16 0 0 0 0 0 0 0 0 
		10 0 0 0 0 0 0 0 0 0 0 0 0 0 0 0 0 0 0 15 0 0 0 0 0 0 0 0 0 0 0 0 0 0 0 0 20 11 0 
		11 0 0 0 0 0 0 0 0 0 0 0 0 0 0 0 0 0 0 0 0 0 0 0 0 0 0 0 0 0 0 0 0 0 0 0 18 0 0 
		12 0 0 0 0 0 0 0 0 0 0 0 0 0 0 0 0 0 0 0 0 21 0 0 0 0 0 0 0 0 0 0 0 0 0 0 0 0 0 
		13 0 0 0 0 0 0 0 0 0 0 0 0 0 0 0 0 0 0 0 0 0 0 0 0 0 0 0 0 0 0 12 0 0 19 0 0 0 0 
		14 0 0 0 0 0 0 0 0 0 0 0 0 0 0 0 0 0 0 0 0 24 18 0 15 0 0 11 0 0 0 25 0 0 0 13 0 0 0 
		15 0 0 0 0 0 0 0 0 0 0 0 0 0 0 0 0 0 0 0 0 0 0 18 0 0 0 0 0 0 0 15 0 0 0 0 0 0 25 
		16 0 0 0 0 0 0 0 0 0 0 0 0 0 0 0 0 0 0 0 13 0 0 0 0 0 0 0 0 0 0 0 0 0 0 0 16 0 0 
		17 0 0 0 0 0 0 0 0 0 0 0 0 0 0 0 0 0 0 0 0 0 0 0 0 11 22 0 0 0 0 0 0 0 0 0 0 0 0 
		18 0 0 0 0 0 0 0 0 0 0 0 0 0 0 0 0 0 0 0 0 0 0 0 0 0 0 0 0 0 0 0 0 0 23 0 0 0 0 
		19 0 0 0 0 0 0 0 0 0 0 0 0 0 0 0 0 0 0 0 0 0 10 0 0 0 13 0 0 0 0 0 0 0 0 0 0 0 0 
		20 0 0 0 0 0 0 0 0 0 0 0 0 0 0 0 0 0 0 0 0 0 22 0 0 0 0 0 0 0 0 23 0 0 0 0 0 0 0 
		21 0 0 0 0 0 0 0 0 0 0 0 0 0 0 0 0 0 0 0 0 0 0 0 0 0 0 0 0 0 0 0 0 23 17 0 0 13 0 
		22 0 0 0 0 0 0 0 0 0 0 0 0 0 0 0 0 0 0 0 0 0 0 0 0 0 0 0 0 0 15 0 0 0 0 0 21 0 0 
		23 0 0 0 0 0 0 0 0 0 0 0 0 0 0 0 0 0 0 0 0 0 0 0 0 0 0 0 24 0 0 11 0 0 0 0 0 0 0 
		24 0 0 0 0 0 0 0 0 0 0 0 0 0 0 0 0 0 0 0 0 0 0 0 0 0 0 0 0 0 0 0 0 15 0 0 0 0 0 
		25 0 0 0 0 0 0 0 0 0 0 0 0 0 0 0 0 0 0 0 0 0 0 0 0 0 0 0 10 0 0 0 0 0 0 0 0 0 0 
		26 0 0 0 0 0 0 0 0 0 0 0 0 0 0 0 0 0 0 0 0 0 0 0 0 0 0 0 23 0 0 0 0 0 0 0 0 0 0 
		27 0 0 0 0 0 0 0 0 0 0 0 0 0 0 0 0 0 0 0 0 0 0 0 0 0 0 0 0 0 0 0 0 0 0 0 0 0 0 
		28 0 0 0 0 0 0 0 0 0 0 0 0 0 0 0 0 0 0 0 0 0 0 0 0 0 0 0 0 0 0 11 0 0 0 0 0 0 0 
		29 0 0 0 0 0 0 0 0 0 0 0 0 0 0 0 0 0 0 0 0 0 0 0 0 0 0 0 0 0 0 0 0 0 0 0 0 0 0 
		30 0 0 0 0 0 0 0 0 0 0 0 0 0 0 0 0 0 0 0 0 0 0 0 0 0 0 0 0 0 0 0 0 0 0 0 0 0 0 
		31 0 0 0 0 0 0 0 0 0 0 0 0 0 0 0 0 0 0 0 0 0 0 0 0 0 0 0 0 0 0 0 0 0 0 0 0 0 25 
		32 0 0 0 0 0 0 0 0 0 0 0 0 0 0 0 0 0 0 0 0 0 0 0 0 0 0 0 0 0 0 0 0 0 0 0 0 0 25 
		33 0 0 0 0 0 0 0 0 0 0 0 0 0 0 0 0 0 0 0 0 0 0 0 0 0 0 0 0 0 0 0 0 0 0 0 0 0 0 
		34 0 0 0 0 0 0 0 0 0 0 0 0 0 0 0 0 0 0 0 0 0 0 0 0 0 0 0 0 0 0 0 0 0 0 0 0 0 0 
		35 0 0 0 0 0 0 0 0 0 0 0 0 0 0 0 0 0 0 0 0 0 0 0 0 0 0 0 0 0 0 0 0 0 0 0 0 0 0 
		36 0 0 0 0 0 0 0 0 0 0 0 0 0 0 0 0 0 0 0 0 0 0 0 0 0 0 0 0 0 0 0 0 0 0 0 0 0 0 
		37 0 0 0 0 0 0 0 0 0 0 0 0 0 0 0 0 0 0 0 0 0 0 0 0 0 0 0 0 0 0 0 0 0 0 0 0 0 0 
;
param bs:	 0 1 2 3 4 5 6 7 8 9 10 11 12 13 14 15 16 17 18 19 20 21 22 23 24 25 26 27 28 29 30 31 32 33 34 35 36 37 38 39 40 41 42 43 44 45 46 47 48 49 50 51 52 53 54 55 56 57 58 59 60 61 62 63 64 65 66 67 68 69 70 71 72 73 74 75 76 77 78 79 80 := 
		0 0 0 0 40 32 34 0 32 0 0 0 0 0 0 0 0 0 0 0 0 0 0 0 0 0 0 0 0 0 0 0 0 0 0 0 0 0 0 0 0 0 0 0 0 0 0 0 0 0 0 0 0 0 0 0 0 0 0 0 26 0 0 0 0 0 0 0 0 0 0 0 0 0 0 0 0 0 0 0 0 0 
		1 0 0 0 0 29 0 0 0 0 0 0 0 0 31 0 0 0 0 0 0 0 0 0 0 28 0 0 0 0 0 0 0 0 0 40 0 0 0 0 0 0 0 0 0 0 0 0 0 29 26 0 0 0 0 0 38 0 0 0 0 0 0 0 0 0 0 0 0 0 0 0 40 0 0 0 0 0 0 0 0 0 
		2 0 0 0 0 0 0 0 0 0 0 0 0 0 0 0 0 0 0 0 0 0 23 0 0 0 0 0 0 0 0 0 0 0 0 0 0 0 0 0 0 0 0 0 0 29 0 0 29 0 0 0 28 0 0 0 0 0 0 0 0 0 0 34 0 0 0 0 0 0 0 0 0 0 0 25 0 0 0 0 0 0 
		3 40 0 0 0 0 0 0 0 0 0 0 0 0 0 40 0 0 0 0 0 0 0 28 0 0 0 0 0 0 0 0 0 25 0 0 0 0 0 0 0 0 0 0 0 0 0 0 0 0 0 0 0 0 0 0 0 36 27 0 0 0 0 0 0 0 0 0 0 0 0 0 0 0 26 0 0 0 0 0 0 0 
		4 32 29 0 0 0 0 0 0 0 26 0 0 34 0 0 0 0 0 0 0 0 0 0 0 0 0 0 0 0 0 0 0 0 0 0 0 0 0 0 0 0 0 0 0 0 0 0 0 0 0 0 0 22 0 0 0 0 0 0 0 0 0 0 0 0 0 0 0 0 37 0 0 0 0 0 0 0 0 33 0 0 
		5 34 0 0 0 0 0 29 0 0 0 0 0 0 0 0 33 0 0 32 0 0 0 0 0 0 0 0 0 0 0 0 0 20 31 0 0 0 0 0 0 0 0 0 0 0 0 0 0 0 0 0 0 0 0 22 0 0 0 0 0 0 0 0 0 34 0 0 0 0 0 0 0 0 0 0 0 0 0 0 0 34 
		6 0 0 0 0 0 29 0 0 0 0 0 21 0 0 0 0 0 0 29 0 0 0 0 0 0 0 0 0 0 0 0 0 0 0 0 0 0 0 0 0 0 0 0 0 25 0 0 0 0 0 0 0 0 0 0 38 0 0 0 0 21 0 0 0 0 0 0 0 0 0 0 0 0 0 0 0 0 0 0 0 0 
		7 32 0 0 0 0 0 0 0 0 0 27 0 0 0 24 0 0 0 0 0 0 0 0 0 0 0 0 0 0 0 0 0 0 0 0 31 0 24 0 0 0 33 0 0 0 0 0 27 0 0 0 0 0 35 0 0 0 0 0 0 0 40 0 0 0 0 0 34 0 0 0 0 0 0 0 0 0 0 0 0 0 
		8 0 0 0 0 0 0 0 0 0 0 37 0 0 0 0 0 38 0 25 0 0 31 0 0 39 33 0 0 0 0 20 0 0 28 0 0 0 25 0 0 0 28 0 0 20 0 0 0 0 0 0 0 0 0 0 0 27 0 0 40 0 0 0 0 0 0 0 0 0 32 25 0 0 0 0 0 31 0 0 0 0 
		9 0 0 0 0 26 0 0 0 0 0 0 0 24 0 0 0 0 0 0 0 36 0 0 22 0 0 0 37 0 0 0 0 0 0 0 0 0 0 0 0 28 0 0 0 37 0 0 0 29 0 0 0 29 0 0 20 0 34 0 37 0 0 0 0 0 0 0 0 0 0 0 0 0 0 0 0 0 0 0 0 0 
		10 0 0 0 0 0 0 0 27 37 0 0 0 0 0 0 0 0 0 25 0 0 0 0 0 0 0 0 21 0 0 0 0 0 0 0 0 0 0 0 0 0 0 0 0 0 0 0 0 0 0 0 0 0 0 0 0 0 0 0 0 0 0 0 0 0 0 0 0 0 0 0 0 0 33 0 0 0 0 0 0 0 
		11 0 0 0 0 0 0 21 0 0 0 0 0 27 0 0 0 0 0 0 0 0 0 0 0 0 0 0 0 0 27 0 39 0 34 0 0 0 0 0 0 0 0 0 0 0 0 0 0 0 0 0 0 0 0 0 0 0 0 38 0 0 0 0 0 0 0 0 0 0 0 0 0 0 0 31 0 0 0 0 0 0 
		12 0 0 0 0 34 0 0 0 0 24 0 27 0 0 0 0 29 0 0 0 0 0 0 26 33 0 0 0 0 0 0 0 0 0 0 0 40 0 33 0 0 0 0 0 0 0 0 0 0 0 39 0 0 0 0 0 0 0 0 0 0 0 37 0 0 0 0 0 0 0 0 0 20 0 0 0 0 0 0 0 0 
		13 0 31 0 0 0 0 0 0 0 0 0 0 0 0 0 0 0 0 0 0 0 0 0 0 28 0 0 0 0 0 0 27 0 0 0 0 0 39 0 0 0 0 0 0 0 0 34 36 0 0 34 0 0 0 0 0 0 0 0 0 0 0 0 0 0 0 0 0 0 25 0 33 20 0 0 0 0 0 20 0 0 
		14 0 0 0 40 0 0 0 24 0 0 0 0 0 0 0 0 0 0 0 0 0 0 33 0 21 38 0 0 0 0 0 0 0 0 0 0 0 0 0 0 0 0 25 0 0 0 0 0 0 0 0 0 0 0 0 0 0 0 0 0 0 0 0 0 0 0 0 38 0 0 0 0 0 0 0 0 0 0 0 22 22 
		15 0 0 0 0 0 33 0 0 0 0 0 0 0 0 0 0 0 0 0 33 0 0 0 0 0 0 0 0 21 0 0 0 0 0 0 0 0 0 0 0 0 0 0 0 0 0 0 0 0 0 0 0 0 0 0 0 0 0 0 0 36 24 0 0 0 0 0 0 0 0 0 0 0 37 0 0 0 0 0 0 0 
		16 0 0 0 0 0 0 0 0 38 0 0 0 29 0 0 0 0 0 0 0 0 0 0 0 20 0 0 0 20 0 33 0 0 0 0 0 0 0 0 0 27 0 0 0 0 0 0 0 40 0 0 0 0 0 0 0 0 0 0 0 0 0 0 0 39 0 0 0 0 0 0 0 0 0 0 0 0 0 0 32 0 
		17 0 0 0 0 0 0 0 0 0 0 0 0 0 0 0 0 0 0 0 0 0 0 32 0 0 0 0 0 22 0 0 0 0 0 0 33 0 0 0 0 32 0 0 0 0 39 0 0 21 0 0 0 0 0 0 0 0 0 0 0 0 24 0 0 27 0 0 22 0 0 0 0 0 0 0 0 0 0 32 33 0 
		18 0 0 0 0 0 32 29 0 25 0 25 0 0 0 0 0 0 0 0 0 0 37 0 22 0 0 0 0 0 0 0 0 0 0 0 0 0 0 0 0 0 0 0 0 25 0 35 0 0 0 0 0 0 30 0 0 0 28 36 32 0 0 36 0 0 0 0 0 0 0 34 0 0 0 0 37 29 0 0 0 0 
		19 0 0 0 0 0 0 0 0 0 0 0 0 0 0 0 33 0 0 0 0 0 0 0 0 0 0 0 0 0 0 0 0 0 0 0 0 0 0 0 0 0 0 0 0 0 29 0 22 0 0 0 0 0 0 0 0 0 0 0 0 35 0 0 0 0 0 0 0 0 0 0 0 0 0 0 0 0 0 0 0 0 
		20 0 0 0 0 0 0 0 0 0 36 0 0 0 0 0 0 0 0 0 0 0 0 0 0 0 0 37 0 0 0 0 38 0 0 0 0 0 0 0 0 0 24 0 0 0 0 0 0 0 0 0 0 0 25 0 0 0 0 0 29 0 0 0 0 0 0 0 0 0 0 0 0 0 0 0 0 0 0 0 0 0 
		21 0 0 23 0 0 0 0 0 31 0 0 0 0 0 0 0 0 0 37 0 0 0 0 0 0 0 0 0 0 33 0 0 37 0 23 0 0 0 38 0 0 0 0 0 0 0 25 0 24 24 0 0 0 0 0 36 0 0 0 0 0 0 0 0 0 0 0 0 0 0 0 0 0 0 0 29 0 0 0 0 0 
		22 0 0 0 28 0 0 0 0 0 0 0 0 0 0 33 0 0 32 0 0 0 0 0 0 0 24 0 0 0 0 0 0 0 0 0 0 0 0 0 0 22 0 40 0 0 0 0 0 0 0 0 0 0 0 32 0 24 0 0 0 0 0 0 0 0 0 0 0 0 0 0 0 0 0 0 0 0 0 0 0 26 
		23 0 0 0 0 0 0 0 0 0 22 0 0 26 0 0 0 0 0 22 0 0 0 0 0 0 0 0 0 0 0 0 0 0 0 0 0 0 0 0 0 0 0 0 0 0 0 0 0 29 0 0 0 36 35 40 0 0 0 0 36 0 0 0 39 0 0 0 0 26 24 0 0 0 0 0 0 27 0 0 22 0 
		24 0 28 0 0 0 0 0 0 39 0 0 0 33 28 21 0 20 0 0 0 0 0 0 0 0 0 0 0 0 0 0 0 40 0 0 0 27 0 0 0 0 0 40 0 0 0 0 0 0 0 0 0 0 0 20 0 0 0 0 0 0 0 0 0 0 0 0 0 0 0 0 0 0 0 0 0 0 0 0 21 0 
		25 0 0 0 0 0 0 0 0 33 0 0 0 0 0 38 0 0 0 0 0 0 0 24 0 0 0 0 0 36 0 0 0 0 28 0 0 0 0 0 0 0 0 0 0 0 0 0 0 0 0 0 0 0 0 0 0 0 0 0 0 0 26 34 0 20 0 0 0 0 0 0 0 0 0 0 20 0 0 0 0 0 
		26 0 0 0 0 0 0 0 0 0 0 0 0 0 0 0 0 0 0 0 0 37 0 0 0 0 0 0 0 0 0 0 0 0 0 0 0 0 26 0 0 0 0 0 0 0 0 0 0 0 0 33 0 20 0 0 22 0 0 0 20 0 0 0 0 0 0 0 0 0 0 0 0 0 0 0 0 0 0 0 0 0 
		27 0 0 0 0 0 0 0 0 0 37 21 0 0 0 0 0 0 0 0 0 0 0 0 0 0 0 0 0 0 0 0 0 0 0 0 0 0 0 36 0 0 0 0 0 0 0 0 0 0 20 0 26 0 0 0 0 0 0 29 20 0 0 0 0 0 0 0 0 0 0 0 0 0 0 28 0 0 0 0 0 0 
		28 0 0 0 0 0 0 0 0 0 0 0 0 0 0 0 21 20 22 0 0 0 0 0 0 0 36 0 0 0 0 0 0 0 0 0 0 37 0 0 0 0 0 0 0 21 0 0 0 0 0 0 0 0 0 0 0 0 0 0 0 0 32 0 23 0 0 0 0 0 0 0 0 0 0 0 0 28 0 0 0 0 
		29 0 0 0 0 0 0 0 0 0 0 0 27 0 0 0 0 0 0 0 0 0 33 0 0 0 0 0 0 0 0 0 0 0 0 0 0 0 0 0 0 0 0 0 0 0 0 0 0 0 0 0 0 36 0 0 0 0 0 0 0 0 0 0 0 0 20 0 0 0 0 0 0 24 21 0 0 0 0 0 0 0 
		30 0 0 0 0 0 0 0 0 20 0 0 0 0 0 0 0 33 0 0 0 0 0 0 0 0 0 0 0 0 0 0 36 0 0 0 0 0 0 0 0 0 0 0 0 0 0 0 0 0 0 0 0 0 0 27 0 0 0 0 0 0 0 0 0 0 0 39 0 0 0 0 0 0 0 0 0 0 0 0 0 0 
		31 0 0 0 0 0 0 0 0 0 0 0 39 0 27 0 0 0 0 0 0 38 0 0 0 0 0 0 0 0 0 36 0 25 0 0 0 0 0 0 0 29 0 40 0 0 0 22 0 0 0 0 0 0 0 0 0 0 25 0 0 0 0 0 0 0 0 0 0 0 0 0 0 0 0 0 0 0 0 21 0 0 
		32 0 0 0 25 0 20 0 0 0 0 0 0 0 0 0 0 0 0 0 0 0 37 0 0 40 0 0 0 0 0 0 25 0 0 0 0 0 0 34 0 0 0 0 0 0 0 0 0 0 0 0 0 0 0 0 0 0 0 0 0 0 0 0 0 0 0 0 0 0 29 0 0 0 0 0 0 0 0 0 0 0 
		33 0 0 0 0 0 31 0 0 28 0 0 34 0 0 0 0 0 0 0 0 0 0 0 0 0 28 0 0 0 0 0 0 0 0 0 0 0 0 0 0 0 0 0 0 0 0 0 20 0 0 0 0 0 0 0 0 0 0 0 0 0 0 0 38 0 0 0 0 0 0 0 0 0 0 0 0 0 0 0 0 40 
		34 0 40 0 0 0 0 0 0 0 0 0 0 0 0 0 0 0 0 0 0 0 23 0 0 0 0 0 0 0 0 0 0 0 0 0 0 0 20 0 0 0 36 0 0 0 0 0 0 0 30 0 0 0 0 0 0 0 0 0 0 0 0 0 0 0 0 0 0 0 0 0 0 0 0 0 0 38 0 0 0 0 
		35 0 0 0 0 0 0 0 31 0 0 0 0 0 0 0 0 0 33 0 0 0 0 0 0 0 0 0 0 0 0 0 0 0 0 0 0 0 0 0 0 0 0 0 0 0 0 0 0 0 0 34 0 0 0 0 0 0 0 0 0 0 0 0 0 0 0 32 0 0 0 0 0 0 0 0 32 0 0 0 0 0 
		36 0 0 0 0 0 0 0 0 0 0 0 0 40 0 0 0 0 0 0 0 0 0 0 0 27 0 0 0 37 0 0 0 0 0 0 0 0 0 0 0 0 0 0 0 0 0 0 0 38 0 0 0 0 0 0 32 0 0 0 0 0 28 0 0 0 0 0 0 0 0 0 0 0 20 0 0 39 0 0 0 0 
		37 0 0 0 0 0 0 0 24 25 0 0 0 0 39 0 0 0 0 0 0 0 0 0 0 0 0 26 0 0 0 0 0 0 0 20 0 0 0 0 0 0 0 0 0 0 0 0 0 31 0 22 0 26 0 31 0 0 0 0 0 0 0 0 0 0 0 0 0 32 0 0 0 0 0 0 0 0 36 0 0 0 
		38 0 0 0 0 0 0 0 0 0 0 0 0 33 0 0 0 0 0 0 0 0 38 0 0 0 0 0 36 0 0 0 0 34 0 0 0 0 0 0 0 0 0 0 0 0 0 0 0 39 39 0 0 0 0 0 39 0 0 0 0 0 0 0 0 0 0 0 0 0 32 0 0 0 0 0 0 0 0 33 0 32 
		39 0 0 0 0 0 0 0 0 0 0 0 0 0 0 0 0 0 0 0 0 0 0 0 0 0 0 0 0 0 0 0 0 0 0 0 0 0 0 0 0 0 0 0 0 0 0 0 0 0 0 0 0 0 0 0 0 0 0 0 0 39 0 0 0 0 0 0 0 0 0 0 0 0 33 0 40 0 0 0 0 0 
		40 0 0 0 0 0 0 0 0 0 28 0 0 0 0 0 0 27 32 0 0 0 0 22 0 0 0 0 0 0 0 0 29 0 0 0 0 0 0 0 0 0 0 26 0 24 0 0 0 0 0 23 0 0 0 0 0 0 0 0 0 0 0 0 0 27 0 0 0 0 0 0 0 0 0 0 0 0 0 0 0 0 
		41 0 0 0 0 0 0 0 33 28 0 0 0 0 0 0 0 0 0 0 0 24 0 0 0 0 0 0 0 0 0 0 0 0 0 36 0 0 0 0 0 0 0 0 0 0 0 25 0 0 0 0 0 0 0 0 0 40 0 0 0 0 0 0 0 0 0 0 0 0 0 0 0 0 0 0 0 0 27 0 0 0 
		42 0 0 0 0 0 0 0 0 0 0 0 0 0 0 25 0 0 0 0 0 0 0 40 0 40 0 0 0 0 0 0 40 0 0 0 0 0 0 0 0 26 0 0 0 0 0 0 0 24 0 0 0 0 0 28 0 0 0 0 0 28 0 0 0 0 0 0 0 22 0 0 34 0 0 0 0 0 0 0 0 34 
		43 0 0 0 0 0 0 0 0 0 0 0 0 0 0 0 0 0 0 0 0 0 0 0 0 0 0 0 0 0 0 0 0 0 0 0 0 0 0 0 0 0 0 0 0 0 0 0 0 0 0 0 0 0 0 0 0 30 0 0 0 0 0 0 0 0 0 0 28 0 0 0 0 0 0 0 36 0 0 33 0 0 
		44 0 0 29 0 0 0 25 0 20 37 0 0 0 0 0 0 0 0 25 0 0 0 0 0 0 0 0 0 21 0 0 0 0 0 0 0 0 0 0 0 24 0 0 0 0 33 0 0 0 32 0 0 0 0 0 0 0 0 0 0 0 0 0 0 0 0 0 0 0 0 0 0 0 0 27 26 0 0 0 0 0 
		45 0 0 0 0 0 0 0 0 0 0 0 0 0 0 0 0 0 39 0 29 0 0 0 0 0 0 0 0 0 0 0 0 0 0 0 0 0 0 0 0 0 0 0 0 33 0 31 0 0 0 0 0 0 0 0 0 0 0 0 0 30 0 0 0 34 0 0 0 0 0 0 0 0 0 0 27 0 29 0 0 0 
		46 0 0 0 0 0 0 0 0 0 0 0 0 0 34 0 0 0 0 35 0 0 25 0 0 0 0 0 0 0 0 0 22 0 0 0 0 0 0 0 0 0 25 0 0 0 31 0 0 0 0 0 0 0 0 0 0 0 0 0 0 0 0 0 0 0 0 0 0 0 0 0 0 0 0 0 0 0 0 0 0 0 
		47 0 0 29 0 0 0 0 27 0 0 0 0 0 36 0 0 0 0 0 22 0 0 0 0 0 0 0 0 0 0 0 0 0 20 0 0 0 0 0 0 0 0 0 0 0 0 0 0 0 0 0 0 0 0 39 0 0 0 0 0 0 0 0 0 0 0 0 0 36 0 0 0 0 0 0 0 0 0 0 0 0 
		48 0 29 0 0 0 0 0 0 0 29 0 0 0 0 0 0 40 21 0 0 0 24 0 29 0 0 0 0 0 0 0 0 0 0 0 0 38 31 39 0 0 0 24 0 0 0 0 0 0 34 0 33 36 0 0 0 0 0 0 0 0 0 0 0 37 0 0 0 0 22 0 33 0 0 0 28 0 0 39 0 0 
		49 0 26 0 0 0 0 0 0 0 0 0 0 0 0 0 0 0 0 0 0 0 24 0 0 0 0 0 20 0 0 0 0 0 0 30 0 0 0 39 0 0 0 0 0 32 0 0 0 34 0 0 0 0 0 0 0 0 0 0 30 0 0 0 0 0 0 0 0 0 0 39 0 38 0 21 0 31 0 0 0 0 
		50 0 0 0 0 0 0 0 0 0 0 0 0 39 34 0 0 0 0 0 0 0 0 0 0 0 0 33 0 0 0 0 0 0 0 0 34 0 22 0 0 23 0 0 0 0 0 0 0 0 0 0 0 0 0 0 0 0 0 0 0 0 0 0 0 0 0 0 0 0 36 22 0 0 0 0 0 0 0 0 0 0 
		51 0 0 28 0 0 0 0 0 0 0 0 0 0 0 0 0 0 0 0 0 0 0 0 0 0 0 0 26 0 0 0 0 0 0 0 0 0 0 0 0 0 0 0 0 0 0 0 0 33 0 0 0 21 0 0 0 0 0 0 0 29 33 36 0 0 23 0 0 0 0 36 0 0 0 0 0 35 0 0 0 0 
		52 0 0 0 0 22 0 0 0 0 29 0 0 0 0 0 0 0 0 0 0 0 0 0 36 0 0 20 0 0 36 0 0 0 0 0 0 0 26 0 0 0 0 0 0 0 0 0 0 36 0 0 21 0 0 0 0 0 0 0 0 0 0 0 0 0 0 0 0 0 0 0 0 0 0 0 0 0 0 0 0 0 
		53 0 0 0 0 0 0 0 35 0 0 0 0 0 0 0 0 0 0 30 0 25 0 0 35 0 0 0 0 0 0 0 0 0 0 0 0 0 0 0 0 0 0 0 0 0 0 0 0 0 0 0 0 0 0 0 0 0 0 0 0 0 0 0 0 0 0 0 0 0 39 0 0 0 0 0 0 0 32 0 0 0 
		54 0 0 0 0 0 22 0 0 0 0 0 0 0 0 0 0 0 0 0 0 0 0 32 40 20 0 0 0 0 0 27 0 0 0 0 0 0 31 0 0 0 0 28 0 0 0 0 39 0 0 0 0 0 0 0 0 0 0 0 0 0 0 0 0 0 0 0 0 0 0 0 0 0 0 0 0 0 0 0 0 20 
		55 0 38 0 0 0 0 38 0 0 20 0 0 0 0 0 0 0 0 0 0 0 36 0 0 0 0 22 0 0 0 0 0 0 0 0 0 32 0 39 0 0 0 0 0 0 0 0 0 0 0 0 0 0 0 0 0 0 0 0 0 0 0 0 0 0 0 0 0 0 0 23 31 0 0 0 0 0 0 0 0 0 
		56 0 0 0 36 0 0 0 0 27 0 0 0 0 0 0 0 0 0 0 0 0 0 24 0 0 0 0 0 0 0 0 0 0 0 0 0 0 0 0 0 0 40 0 30 0 0 0 0 0 0 0 0 0 0 0 0 0 0 0 0 0 0 0 0 0 0 0 28 0 0 0 0 0 0 0 0 0 0 0 36 0 
		57 0 0 0 27 0 0 0 0 0 34 0 0 0 0 0 0 0 0 28 0 0 0 0 0 0 0 0 0 0 0 0 25 0 0 0 0 0 0 0 0 0 0 0 0 0 0 0 0 0 0 0 0 0 0 0 0 0 0 0 0 0 0 0 0 0 0 0 0 0 0 0 27 0 0 0 0 0 0 0 0 0 
		58 0 0 0 0 0 0 0 0 0 0 0 38 0 0 0 0 0 0 36 0 0 0 0 0 0 0 0 29 0 0 0 0 0 0 0 0 0 0 0 0 0 0 0 0 0 0 0 0 0 0 0 0 0 0 0 0 0 0 0 0 0 0 0 0 0 24 0 0 0 0 25 0 0 0 0 0 0 0 0 0 0 
		59 26 0 0 0 0 0 0 0 40 37 0 0 0 0 0 0 0 0 32 0 29 0 0 36 0 0 20 20 0 0 0 0 0 0 0 0 0 0 0 0 0 0 0 0 0 0 0 0 0 30 0 0 0 0 0 0 0 0 0 0 0 0 37 0 0 0 0 0 0 0 0 0 0 0 23 0 0 0 0 0 0 
		60 0 0 0 0 0 0 21 0 0 0 0 0 0 0 0 36 0 0 0 35 0 0 0 0 0 0 0 0 0 0 0 0 0 0 0 0 0 0 0 39 0 0 28 0 0 30 0 0 0 0 0 29 0 0 0 0 0 0 0 0 0 0 36 0 0 0 0 0 0 0 0 0 0 0 0 0 0 0 0 0 0 
		61 0 0 0 0 0 0 0 40 0 0 0 0 0 0 0 24 0 24 0 0 0 0 0 0 0 26 0 0 32 0 0 0 0 0 0 0 28 0 0 0 0 0 0 0 0 0 0 0 0 0 0 33 0 0 0 0 0 0 0 0 0 0 0 0 0 0 0 0 0 0 0 0 0 0 0 0 0 0 0 0 0 
		62 0 0 34 0 0 0 0 0 0 0 0 0 37 0 0 0 0 0 36 0 0 0 0 0 0 34 0 0 0 0 0 0 0 0 0 0 0 0 0 0 0 0 0 0 0 0 0 0 0 0 0 36 0 0 0 0 0 0 0 37 36 0 0 0 0 0 0 0 0 0 22 0 0 0 0 0 0 0 0 0 0 
		63 0 0 0 0 0 0 0 0 0 0 0 0 0 0 0 0 0 0 0 0 0 0 0 39 0 0 0 0 23 0 0 0 0 38 0 0 0 0 0 0 0 0 0 0 0 0 0 0 0 0 0 0 0 0 0 0 0 0 0 0 0 0 0 0 0 0 0 0 0 0 31 0 0 26 0 0 0 0 0 0 0 
		64 0 0 0 0 0 34 0 0 0 0 0 0 0 0 0 0 39 27 0 0 0 0 0 0 0 20 0 0 0 0 0 0 0 0 0 0 0 0 0 0 27 0 0 0 0 34 0 0 37 0 0 0 0 0 0 0 0 0 0 0 0 0 0 0 0 0 0 23 0 0 0 0 0 0 0 24 0 0 0 0 37 
		65 0 0 0 0 0 0 0 0 0 0 0 0 0 0 0 0 0 0 0 0 0 0 0 0 0 0 0 0 0 20 0 0 0 0 0 0 0 0 0 0 0 0 0 0 0 0 0 0 0 0 0 23 0 0 0 0 0 0 24 0 0 0 0 0 0 0 0 0 0 0 0 0 23 0 0 0 29 0 0 0 0 
		66 0 0 0 0 0 0 0 0 0 0 0 0 0 0 0 0 0 0 0 0 0 0 0 0 0 0 0 0 0 0 39 0 0 0 0 32 0 0 0 0 0 0 0 0 0 0 0 0 0 0 0 0 0 0 0 0 0 0 0 0 0 0 0 0 0 0 0 0 0 0 0 0 0 0 0 0 0 0 0 40 37 
		67 0 0 0 0 0 0 0 34 0 0 0 0 0 0 38 0 0 22 0 0 0 0 0 0 0 0 0 0 0 0 0 0 0 0 0 0 0 0 0 0 0 0 0 28 0 0 0 0 0 0 0 0 0 0 0 0 28 0 0 0 0 0 0 0 23 0 0 0 0 0 0 0 0 0 0 0 0 0 0 0 28 
		68 0 0 0 0 0 0 0 0 0 0 0 0 0 0 0 0 0 0 0 0 0 0 0 26 0 0 0 0 0 0 0 0 0 0 0 0 0 32 0 0 0 0 22 0 0 0 0 36 0 0 0 0 0 0 0 0 0 0 0 0 0 0 0 0 0 0 0 0 0 0 0 0 0 0 0 0 0 37 0 0 0 
		69 0 0 0 0 37 0 0 0 32 0 0 0 0 25 0 0 0 0 0 0 0 0 0 24 0 0 0 0 0 0 0 0 29 0 0 0 0 0 32 0 0 0 0 0 0 0 0 0 22 0 36 0 0 39 0 0 0 0 0 0 0 0 0 0 0 0 0 0 0 0 20 0 0 0 0 0 0 0 0 0 0 
		70 0 0 0 0 0 0 0 0 25 0 0 0 0 0 0 0 0 0 34 0 0 0 0 0 0 0 0 0 0 0 0 0 0 0 0 0 0 0 0 0 0 0 0 0 0 0 0 0 0 39 22 36 0 0 0 23 0 0 25 0 0 0 22 31 0 0 0 0 0 20 0 0 0 0 0 0 34 0 0 0 0 
		71 0 40 0 0 0 0 0 0 0 0 0 0 0 33 0 0 0 0 0 0 0 0 0 0 0 0 0 0 0 0 0 0 0 0 0 0 0 0 0 0 0 0 34 0 0 0 0 0 33 0 0 0 0 0 0 31 0 27 0 0 0 0 0 0 0 0 0 0 0 0 0 0 0 0 0 38 0 0 0 29 0 
		72 0 0 0 0 0 0 0 0 0 0 0 0 20 20 0 0 0 0 0 0 0 0 0 0 0 0 0 0 0 24 0 0 0 0 0 0 0 0 0 0 0 0 0 0 0 0 0 0 0 38 0 0 0 0 0 0 0 0 0 0 0 0 0 0 0 23 0 0 0 0 0 0 0 0 0 0 0 0 0 0 0 
		73 0 0 0 26 0 0 0 0 0 0 33 0 0 0 0 37 0 0 0 0 0 0 0 0 0 0 0 0 0 21 0 0 0 0 0 0 20 0 0 33 0 0 0 0 0 0 0 0 0 0 0 0 0 0 0 0 0 0 0 0 0 0 0 26 0 0 0 0 0 0 0 0 0 0 0 0 0 0 0 0 0 
		74 0 0 25 0 0 0 0 0 0 0 0 31 0 0 0 0 0 0 0 0 0 0 0 0 0 0 0 28 0 0 0 0 0 0 0 0 0 0 0 0 0 0 0 0 27 0 0 0 0 21 0 0 0 0 0 0 0 0 0 23 0 0 0 0 0 0 0 0 0 0 0 0 0 0 0 0 0 0 0 0 0 
		75 0 0 0 0 0 0 0 0 0 0 0 0 0 0 0 0 0 0 37 0 0 29 0 0 0 20 0 0 0 0 0 0 0 0 0 32 0 0 0 40 0 0 0 36 26 27 0 0 28 0 0 0 0 0 0 0 0 0 0 0 0 0 0 0 24 0 0 0 0 0 0 38 0 0 0 0 33 27 0 0 0 
		76 0 0 0 0 0 0 0 0 31 0 0 0 0 0 0 0 0 0 29 0 0 0 0 27 0 0 0 0 28 0 0 0 0 0 38 0 39 0 0 0 0 0 0 0 0 0 0 0 0 31 0 35 0 0 0 0 0 0 0 0 0 0 0 0 0 29 0 0 0 0 34 0 0 0 0 33 0 0 0 0 0 
		77 0 0 0 0 0 0 0 0 0 0 0 0 0 0 0 0 0 0 0 0 0 0 0 0 0 0 0 0 0 0 0 0 0 0 0 0 0 36 0 0 0 27 0 0 0 29 0 0 0 0 0 0 0 32 0 0 0 0 0 0 0 0 0 0 0 0 0 0 37 0 0 0 0 0 0 27 0 0 0 0 0 
		78 0 0 0 0 33 0 0 0 0 0 0 0 0 20 0 0 0 32 0 0 0 0 0 0 0 0 0 0 0 0 0 21 0 0 0 0 0 0 33 0 0 0 0 33 0 0 0 0 39 0 0 0 0 0 0 0 0 0 0 0 0 0 0 0 0 0 0 0 0 0 0 0 0 0 0 0 0 0 0 0 20 
		79 0 0 0 0 0 0 0 0 0 0 0 0 0 0 22 0 32 33 0 0 0 0 0 22 21 0 0 0 0 0 0 0 0 0 0 0 0 0 0 0 0 0 0 0 0 0 0 0 0 0 0 0 0 0 0 0 36 0 0 0 0 0 0 0 0 0 40 0 0 0 0 29 0 0 0 0 0 0 0 0 0 
		80 0 0 0 0 0 34 0 0 0 0 0 0 0 0 22 0 0 0 0 0 0 0 26 0 0 0 0 0 0 0 0 0 0 40 0 0 0 0 32 0 0 0 34 0 0 0 0 0 0 0 0 0 0 0 20 0 0 0 0 0 0 0 0 0 37 0 37 28 0 0 0 0 0 0 0 0 0 0 20 0 0 
;
